WARNING: for repeatability, setting FPU to use double precision
============================[ Problem Statistics ]=============================
|                                                                             |
|  Number of variables:            50                                         |
|  Number of clauses:             218                                         |
|  Parse time:                   0.00 s                                       |
|                                                                             |
============================[ Search Statistics ]==============================
| Conflicts |          ORIGINAL         |          LEARNT          | Progress |
|           |    Vars  Clauses Literals |    Limit  Clauses Lit/Cl |          |
===============================================================================
===============================================================================
restarts              : 1
conflicts             : 25             (17581 /sec)
decisions             : 43             (0.00 % random) (30239 /sec)
propagations          : 353            (248242 /sec)
conflict literals     : 131            (7.09 % deleted)
Memory used           : 20.00 MB
CPU time              : 0.001422 s

SATISFIABLE
